NAME : rcdp5004
TYPE : VRPSPDTW
DIMENSION : 51
VEHICLES : 6
CAPACITY : 200
EDGE_WEIGHT_TYPE : EXACT_2D
NODE_COORD_SECTION
1 40 50
2 22 75
3 20 80
4 18 75
5 8 45
6 5 35
7 2 40
8 0 40
9 44 5
10 42 10
11 42 15
12 40 5
13 38 5
14 38 15
15 95 35
16 92 30
17 88 30
18 87 30
19 85 25
20 67 85
21 65 85
22 65 82
23 60 80
24 60 85
25 55 80
26 55 85
27 20 82
28 18 80
29 2 45
30 42 5
31 55 20
32 55 60
33 30 25
34 15 10
35 15 60
36 65 35
37 35 40
38 64 42
39 2 60
40 20 20
41 60 12
42 47 47
43 24 58
44 67 5
45 37 47
46 49 42
47 53 43
48 57 48
49 56 37
50 55 54
51 26 35
PICKUP_AND_DELIVERY_SECTION
1 0 0 240 0 0 0
2 0 0 199 10 20 30
3 0 141 171 10 20 40
4 0 0 196 10 20 20
5 0 0 197 10 10 20
6 0 142 172 10 20 10
7 0 58 88 10 30 20
8 0 0 188 10 10 20
9 0 0 184 10 30 20
10 0 0 189 10 10 40
11 0 0 194 10 10 10
12 0 0 185 10 10 10
13 0 65 95 10 10 30
14 0 0 194 10 30 10
15 0 0 172 10 10 20
16 0 0 174 10 20 10
17 0 0 178 10 20 10
18 0 0 178 10 10 10
19 0 0 178 10 10 10
20 0 0 185 10 20 20
21 0 0 186 10 30 40
22 0 0 189 10 40 10
23 0 0 193 10 20 10
24 0 0 189 10 40 30
25 0 0 196 10 20 10
26 0 0 191 10 30 20
27 0 0 192 10 10 10
28 0 0 192 10 10 10
29 0 0 191 10 10 10
30 0 0 184 10 20 10
31 0 0 196 10 2 19
32 0 0 211 10 7 16
33 0 0 203 10 10 23
34 0 152 182 10 7 20
35 0 0 203 10 5 17
36 0 52 82 10 21 3
37 0 0 218 10 22 16
38 0 70 100 10 22 9
39 0 0 190 10 17 5
40 0 141 171 10 0 8
41 0 75 105 10 11 31
42 0 0 222 10 10 13
43 0 0 212 10 32 19
44 0 0 177 10 15 25
45 0 0 225 10 6 6
46 0 0 217 10 4 13
47 0 14 44 10 12 14
48 0 0 212 10 17 23
49 0 0 209 10 3 6
50 0 0 214 10 8 26
51 0 77 107 10 5 15
DEPOT_SECTION
1 
-1
